\ SCIP STATISTICS
\   Problem name     : Facility
\   Variables        : 15 (15 binary, 0 integer, 0 implicit integer, 0 continuous)
\   Constraints      : 19
\   Obj. scale       : 1
\   Obj. offset      : 0
Minimize
 Obj: +100 x0 +100 x1 +100 x2 +469.518902707868 y00 +473.761543394987 y10 +1975.65634663521 y20 +470.933116270241 y01
      +475.17575695736 y11 +1977.07056019759 y21 +472.347329832614 y02 +476.589970519733 y12 +1978.48477375996 y22
      +677.408296376713 y03 +673.165655689593 y13 +828.729147550634 y23
Subject to
 c1: +1 y00 +1 y10 +1 y20 = +1
 c2: +1 y00 -1 x0 <= +0
 c3: +1 y10 -1 x1 <= +0
 c4: +1 y20 -1 x2 <= +0
 c5: +1 y01 +1 y11 +1 y21 = +1
 c6: +1 y01 -1 x0 <= +0
 c7: +1 y11 -1 x1 <= +0
 c8: +1 y21 -1 x2 <= +0
 c9: +1 y02 +1 y12 +1 y22 = +1
 c10: +1 y02 -1 x0 <= +0
 c11: +1 y12 -1 x1 <= +0
 c12: +1 y22 -1 x2 <= +0
 c13: +1 y03 +1 y13 +1 y23 = +1
 c14: +1 y03 -1 x0 <= +0
 c15: +1 y13 -1 x1 <= +0
 c16: +1 y23 -1 x2 <= +0
 c17: +50 y00 +50 y01 +75 y02 +75 y03 <= +100
 c18: +50 y10 +50 y11 +75 y12 +75 y13 <= +100
 c19: +50 y20 +50 y21 +75 y22 +75 y23 <= +500
Bounds
 0 <= x0 <= 1
 0 <= x1 <= 1
 0 <= x2 <= 1
 0 <= y00 <= 1
 0 <= y10 <= 1
 0 <= y20 <= 1
 0 <= y01 <= 1
 0 <= y11 <= 1
 0 <= y21 <= 1
 0 <= y02 <= 1
 0 <= y12 <= 1
 0 <= y22 <= 1
 0 <= y03 <= 1
 0 <= y13 <= 1
 0 <= y23 <= 1
Binaries
 x0 x1 x2 y00 y10 y20 y01 y11 y21 y02 y12 y22 y03 y13 y23
End
